c File: data_files/evolved_graphs/g0528.col
c
c Auto generated graph
c
p edge 100 2465
e 1 7
e 1 10
e 1 11
e 1 12
e 1 13
e 1 18
e 1 19
e 1 25
e 1 26
e 1 27
e 1 28
e 1 29
e 1 30
e 1 31
e 1 32
e 1 33
e 1 34
e 1 35
e 1 36
e 1 37
e 1 39
e 1 40
e 1 41
e 1 42
e 1 43
e 1 44
e 1 45
e 1 47
e 1 53
e 1 55
e 1 56
e 1 61
e 1 62
e 1 63
e 1 64
e 1 68
e 1 69
e 1 70
e 1 75
e 1 84
e 1 86
e 1 87
e 1 89
e 1 90
e 1 91
e 1 96
e 1 97
e 1 99
e 1 100
e 2 4
e 2 5
e 2 6
e 2 13
e 2 14
e 2 17
e 2 18
e 2 19
e 2 22
e 2 24
e 2 25
e 2 26
e 2 27
e 2 28
e 2 29
e 2 30
e 2 31
e 2 32
e 2 33
e 2 34
e 2 35
e 2 36
e 2 37
e 2 39
e 2 41
e 2 42
e 2 43
e 2 44
e 2 45
e 2 46
e 2 48
e 2 49
e 2 51
e 2 56
e 2 57
e 2 58
e 2 60
e 2 61
e 2 65
e 2 70
e 2 71
e 2 83
e 2 89
e 2 91
e 2 94
e 2 95
e 2 99
e 3 8
e 3 15
e 3 16
e 3 17
e 3 20
e 3 21
e 3 23
e 3 25
e 3 26
e 3 27
e 3 28
e 3 30
e 3 34
e 3 35
e 3 36
e 3 37
e 3 39
e 3 42
e 3 43
e 3 44
e 3 45
e 3 47
e 3 52
e 3 53
e 3 54
e 3 56
e 3 59
e 3 62
e 3 63
e 3 64
e 3 66
e 3 68
e 3 69
e 3 74
e 3 75
e 3 76
e 3 77
e 3 78
e 3 80
e 3 81
e 3 82
e 3 84
e 3 86
e 3 87
e 3 89
e 3 90
e 3 91
e 3 93
e 3 96
e 3 97
e 3 99
e 3 100
e 4 5
e 4 6
e 4 13
e 4 14
e 4 15
e 4 16
e 4 17
e 4 18
e 4 19
e 4 22
e 4 24
e 4 25
e 4 26
e 4 27
e 4 28
e 4 29
e 4 30
e 4 31
e 4 32
e 4 33
e 4 34
e 4 35
e 4 36
e 4 37
e 4 38
e 4 39
e 4 40
e 4 41
e 4 42
e 4 43
e 4 44
e 4 45
e 4 47
e 4 52
e 4 53
e 4 54
e 4 56
e 4 59
e 4 62
e 4 63
e 4 64
e 4 66
e 4 67
e 4 68
e 4 69
e 4 72
e 4 84
e 4 86
e 4 87
e 4 89
e 4 90
e 4 91
e 4 97
e 4 99
e 4 100
e 5 6
e 5 14
e 5 22
e 5 24
e 5 25
e 5 26
e 5 27
e 5 28
e 5 29
e 5 30
e 5 31
e 5 32
e 5 33
e 5 34
e 5 35
e 5 36
e 5 37
e 5 39
e 5 40
e 5 41
e 5 42
e 5 43
e 5 44
e 5 45
e 5 47
e 5 53
e 5 54
e 5 55
e 5 56
e 5 59
e 5 61
e 5 62
e 5 63
e 5 64
e 5 66
e 5 68
e 5 69
e 5 74
e 5 75
e 5 76
e 5 77
e 5 78
e 5 79
e 5 80
e 5 81
e 5 82
e 5 83
e 5 84
e 5 86
e 5 90
e 5 91
e 5 92
e 5 93
e 5 96
e 5 99
e 5 100
e 6 13
e 6 14
e 6 15
e 6 16
e 6 17
e 6 18
e 6 19
e 6 22
e 6 24
e 6 25
e 6 26
e 6 27
e 6 28
e 6 29
e 6 30
e 6 31
e 6 32
e 6 33
e 6 34
e 6 35
e 6 36
e 6 37
e 6 38
e 6 39
e 6 40
e 6 41
e 6 42
e 6 43
e 6 44
e 6 45
e 6 53
e 6 55
e 6 56
e 6 61
e 6 62
e 6 64
e 6 68
e 6 70
e 6 73
e 6 74
e 6 76
e 6 79
e 6 80
e 6 82
e 6 83
e 6 85
e 6 92
e 6 93
e 6 96
e 6 98
e 7 10
e 7 11
e 7 12
e 7 13
e 7 18
e 7 19
e 7 21
e 7 25
e 7 26
e 7 27
e 7 28
e 7 29
e 7 30
e 7 31
e 7 32
e 7 33
e 7 34
e 7 35
e 7 36
e 7 37
e 7 38
e 7 39
e 7 40
e 7 41
e 7 42
e 7 43
e 7 44
e 7 45
e 7 46
e 7 48
e 7 49
e 7 51
e 7 56
e 7 57
e 7 58
e 7 60
e 7 61
e 7 65
e 7 68
e 7 70
e 7 71
e 7 73
e 7 79
e 7 82
e 7 83
e 7 85
e 7 92
e 7 96
e 7 98
e 8 10
e 8 11
e 8 20
e 8 21
e 8 23
e 8 25
e 8 26
e 8 27
e 8 28
e 8 29
e 8 30
e 8 31
e 8 32
e 8 33
e 8 34
e 8 35
e 8 36
e 8 37
e 8 39
e 8 40
e 8 41
e 8 42
e 8 43
e 8 44
e 8 45
e 8 50
e 8 51
e 8 52
e 8 54
e 8 57
e 8 58
e 8 59
e 8 60
e 8 63
e 8 66
e 8 67
e 8 69
e 8 71
e 8 72
e 8 75
e 8 79
e 8 83
e 8 84
e 8 85
e 8 89
e 8 91
e 8 92
e 8 94
e 8 95
e 8 96
e 8 98
e 8 99
e 9 15
e 9 17
e 9 25
e 9 26
e 9 28
e 9 29
e 9 30
e 9 31
e 9 32
e 9 33
e 9 34
e 9 35
e 9 36
e 9 37
e 9 38
e 9 39
e 9 40
e 9 41
e 9 42
e 9 43
e 9 46
e 9 48
e 9 49
e 9 50
e 9 51
e 9 52
e 9 57
e 9 58
e 9 60
e 9 65
e 9 71
e 9 74
e 9 75
e 9 76
e 9 77
e 9 78
e 9 79
e 9 80
e 9 81
e 9 82
e 9 84
e 9 88
e 9 93
e 9 96
e 10 11
e 10 12
e 10 13
e 10 18
e 10 19
e 10 20
e 10 21
e 10 23
e 10 25
e 10 26
e 10 27
e 10 28
e 10 29
e 10 30
e 10 31
e 10 32
e 10 33
e 10 34
e 10 35
e 10 36
e 10 37
e 10 38
e 10 39
e 10 40
e 10 41
e 10 42
e 10 43
e 10 44
e 10 45
e 10 46
e 10 48
e 10 49
e 10 50
e 10 51
e 10 52
e 10 57
e 10 58
e 10 60
e 10 69
e 10 71
e 10 72
e 10 83
e 10 89
e 10 91
e 10 94
e 10 95
e 11 12
e 11 18
e 11 20
e 11 21
e 11 25
e 11 26
e 11 27
e 11 28
e 11 29
e 11 30
e 11 31
e 11 32
e 11 33
e 11 34
e 11 35
e 11 36
e 11 37
e 11 38
e 11 39
e 11 40
e 11 41
e 11 42
e 11 43
e 11 44
e 11 45
e 11 46
e 11 48
e 11 49
e 11 51
e 11 56
e 11 57
e 11 61
e 11 65
e 11 70
e 11 74
e 11 75
e 11 76
e 11 82
e 11 84
e 11 86
e 11 87
e 11 89
e 11 90
e 11 91
e 11 94
e 11 96
e 11 97
e 11 99
e 11 100
e 12 13
e 12 18
e 12 19
e 12 21
e 12 25
e 12 26
e 12 27
e 12 28
e 12 29
e 12 30
e 12 31
e 12 32
e 12 33
e 12 34
e 12 35
e 12 36
e 12 37
e 12 39
e 12 40
e 12 41
e 12 42
e 12 43
e 12 44
e 12 45
e 12 47
e 12 52
e 12 53
e 12 54
e 12 55
e 12 56
e 12 59
e 12 61
e 12 62
e 12 63
e 12 64
e 12 68
e 12 69
e 12 70
e 12 74
e 12 75
e 12 79
e 12 82
e 12 83
e 12 84
e 12 86
e 12 87
e 12 89
e 12 91
e 12 92
e 12 94
e 12 95
e 12 96
e 12 99
e 12 100
e 13 14
e 13 16
e 13 17
e 13 18
e 13 19
e 13 21
e 13 22
e 13 23
e 13 24
e 13 25
e 13 26
e 13 27
e 13 28
e 13 29
e 13 30
e 13 31
e 13 32
e 13 33
e 13 34
e 13 35
e 13 36
e 13 37
e 13 38
e 13 39
e 13 40
e 13 41
e 13 42
e 13 43
e 13 44
e 13 45
e 13 47
e 13 52
e 13 53
e 13 54
e 13 56
e 13 59
e 13 62
e 13 63
e 13 64
e 13 66
e 13 67
e 13 68
e 13 69
e 13 72
e 13 74
e 13 75
e 13 76
e 13 77
e 13 78
e 13 80
e 13 81
e 13 82
e 13 88
e 13 90
e 13 93
e 14 16
e 14 17
e 14 18
e 14 19
e 14 22
e 14 24
e 14 25
e 14 26
e 14 27
e 14 28
e 14 29
e 14 30
e 14 31
e 14 32
e 14 33
e 14 34
e 14 35
e 14 36
e 14 37
e 14 39
e 14 40
e 14 41
e 14 42
e 14 43
e 14 44
e 14 45
e 14 47
e 14 52
e 14 53
e 14 54
e 14 59
e 14 63
e 14 66
e 14 67
e 14 69
e 14 72
e 14 73
e 14 79
e 14 83
e 14 85
e 14 91
e 14 92
e 14 94
e 14 95
e 14 98
e 15 16
e 15 17
e 15 23
e 15 25
e 15 26
e 15 27
e 15 28
e 15 29
e 15 30
e 15 31
e 15 32
e 15 33
e 15 34
e 15 35
e 15 36
e 15 37
e 15 38
e 15 39
e 15 40
e 15 41
e 15 42
e 15 43
e 15 44
e 15 45
e 15 46
e 15 49
e 15 61
e 15 65
e 15 70
e 15 73
e 15 79
e 15 83
e 15 85
e 15 92
e 15 94
e 15 95
e 15 96
e 15 98
e 16 17
e 16 18
e 16 19
e 16 21
e 16 22
e 16 23
e 16 24
e 16 25
e 16 26
e 16 27
e 16 28
e 16 29
e 16 30
e 16 31
e 16 32
e 16 33
e 16 34
e 16 35
e 16 36
e 16 37
e 16 38
e 16 39
e 16 40
e 16 41
e 16 42
e 16 43
e 16 44
e 16 45
e 16 46
e 16 48
e 16 49
e 16 50
e 16 51
e 16 52
e 16 54
e 16 57
e 16 58
e 16 59
e 16 60
e 16 67
e 16 69
e 16 71
e 16 72
e 16 75
e 16 84
e 16 86
e 16 87
e 16 89
e 16 90
e 16 91
e 16 94
e 16 95
e 16 96
e 16 97
e 16 99
e 16 100
e 17 18
e 17 19
e 17 22
e 17 23
e 17 24
e 17 25
e 17 26
e 17 27
e 17 29
e 17 30
e 17 31
e 17 32
e 17 33
e 17 34
e 17 35
e 17 36
e 17 37
e 17 38
e 17 39
e 17 40
e 17 41
e 17 43
e 17 53
e 17 55
e 17 56
e 17 61
e 17 62
e 17 64
e 17 68
e 17 70
e 17 75
e 17 84
e 17 86
e 17 87
e 17 89
e 17 91
e 17 94
e 17 96
e 17 97
e 17 99
e 17 100
e 18 19
e 18 21
e 18 23
e 18 24
e 18 25
e 18 26
e 18 27
e 18 28
e 18 29
e 18 30
e 18 31
e 18 32
e 18 33
e 18 34
e 18 35
e 18 36
e 18 37
e 18 38
e 18 39
e 18 40
e 18 41
e 18 42
e 18 43
e 18 44
e 18 45
e 18 46
e 18 48
e 18 49
e 18 65
e 18 70
e 18 74
e 18 75
e 18 76
e 18 77
e 18 78
e 18 80
e 18 81
e 18 82
e 18 84
e 18 86
e 18 87
e 18 90
e 18 91
e 18 96
e 18 97
e 18 99
e 18 100
e 19 21
e 19 22
e 19 24
e 19 25
e 19 26
e 19 27
e 19 28
e 19 29
e 19 30
e 19 31
e 19 32
e 19 33
e 19 34
e 19 35
e 19 36
e 19 37
e 19 38
e 19 39
e 19 40
e 19 41
e 19 42
e 19 43
e 19 44
e 19 45
e 19 46
e 19 48
e 19 49
e 19 51
e 19 57
e 19 58
e 19 60
e 19 65
e 19 71
e 19 73
e 19 74
e 19 75
e 19 76
e 19 77
e 19 78
e 19 79
e 19 80
e 19 82
e 19 83
e 19 84
e 19 85
e 19 92
e 19 93
e 19 96
e 19 98
e 20 21
e 20 23
e 20 25
e 20 26
e 20 27
e 20 28
e 20 29
e 20 30
e 20 31
e 20 32
e 20 33
e 20 34
e 20 35
e 20 36
e 20 37
e 20 39
e 20 41
e 20 42
e 20 43
e 20 44
e 20 45
e 20 47
e 20 52
e 20 53
e 20 54
e 20 59
e 20 63
e 20 66
e 20 67
e 20 69
e 20 72
e 20 73
e 20 79
e 20 83
e 20 85
e 20 92
e 20 98
e 21 23
e 21 25
e 21 26
e 21 27
e 21 28
e 21 29
e 21 30
e 21 31
e 21 32
e 21 33
e 21 34
e 21 35
e 21 36
e 21 37
e 21 38
e 21 39
e 21 40
e 21 41
e 21 42
e 21 43
e 21 44
e 21 45
e 21 47
e 21 52
e 21 53
e 21 54
e 21 56
e 21 59
e 21 63
e 21 66
e 21 67
e 21 68
e 21 69
e 21 72
e 21 73
e 21 75
e 21 79
e 21 83
e 21 84
e 21 85
e 21 89
e 21 91
e 21 92
e 21 94
e 21 95
e 21 96
e 21 98
e 22 24
e 22 25
e 22 26
e 22 27
e 22 29
e 22 30
e 22 31
e 22 32
e 22 33
e 22 34
e 22 35
e 22 36
e 22 37
e 22 38
e 22 39
e 22 40
e 22 41
e 22 43
e 22 45
e 22 46
e 22 48
e 22 49
e 22 65
e 22 74
e 22 75
e 22 76
e 22 77
e 22 78
e 22 80
e 22 81
e 22 82
e 22 84
e 22 88
e 22 90
e 22 93
e 22 96
e 23 25
e 23 26
e 23 27
e 23 28
e 23 29
e 23 30
e 23 31
e 23 33
e 23 34
e 23 35
e 23 36
e 23 37
e 23 39
e 23 40
e 23 42
e 23 43
e 23 44
e 23 45
e 23 46
e 23 48
e 23 49
e 23 51
e 23 57
e 23 61
e 23 65
e 23 70
e 23 74
e 23 75
e 23 76
e 23 77
e 23 78
e 23 80
e 23 81
e 23 82
e 23 84
e 23 86
e 23 87
e 23 88
e 23 90
e 23 93
e 23 96
e 23 99
e 23 100
e 24 25
e 24 26
e 24 27
e 24 28
e 24 29
e 24 30
e 24 31
e 24 32
e 24 33
e 24 34
e 24 35
e 24 36
e 24 37
e 24 38
e 24 39
e 24 40
e 24 41
e 24 42
e 24 43
e 24 44
e 24 45
e 24 55
e 24 56
e 24 61
e 24 62
e 24 64
e 24 68
e 24 70
e 24 73
e 24 74
e 24 75
e 24 76
e 24 77
e 24 78
e 24 79
e 24 80
e 24 81
e 24 82
e 24 83
e 24 84
e 24 85
e 24 91
e 24 92
e 24 93
e 24 96
e 24 98
e 25 30
e 25 31
e 25 32
e 25 36
e 25 42
e 25 45
e 25 46
e 25 48
e 25 49
e 25 50
e 25 51
e 25 52
e 25 57
e 25 58
e 25 60
e 25 65
e 25 69
e 25 71
e 25 74
e 25 75
e 25 76
e 25 77
e 25 78
e 25 80
e 25 81
e 25 82
e 25 84
e 25 86
e 25 88
e 25 90
e 25 93
e 25 96
e 25 99
e 25 100
e 26 28
e 26 31
e 26 33
e 26 37
e 26 40
e 26 43
e 26 44
e 26 45
e 26 53
e 26 55
e 26 56
e 26 61
e 26 62
e 26 63
e 26 64
e 26 68
e 26 69
e 26 70
e 26 73
e 26 79
e 26 82
e 26 83
e 26 85
e 26 92
e 26 98
e 27 28
e 27 33
e 27 34
e 27 35
e 27 37
e 27 38
e 27 39
e 27 40
e 27 41
e 27 43
e 27 44
e 27 45
e 27 47
e 27 52
e 27 53
e 27 54
e 27 55
e 27 56
e 27 59
e 27 61
e 27 62
e 27 63
e 27 64
e 27 66
e 27 68
e 27 69
e 27 70
e 27 74
e 27 75
e 27 76
e 27 77
e 27 78
e 27 79
e 27 80
e 27 81
e 27 82
e 27 84
e 27 88
e 27 93
e 27 96
e 28 30
e 28 31
e 28 32
e 28 33
e 28 34
e 28 37
e 28 40
e 28 41
e 28 44
e 28 45
e 28 47
e 28 52
e 28 53
e 28 54
e 28 56
e 28 57
e 28 58
e 28 59
e 28 62
e 28 63
e 28 64
e 28 66
e 28 67
e 28 68
e 28 69
e 28 72
e 28 74
e 28 75
e 28 76
e 28 77
e 28 78
e 28 79
e 28 80
e 28 81
e 28 82
e 28 83
e 28 84
e 28 85
e 28 90
e 28 91
e 28 92
e 28 93
e 28 96
e 28 98
e 28 99
e 29 30
e 29 34
e 29 42
e 29 46
e 29 48
e 29 49
e 29 51
e 29 57
e 29 58
e 29 60
e 29 61
e 29 65
e 29 70
e 29 71
e 29 74
e 29 75
e 29 76
e 29 77
e 29 78
e 29 80
e 29 81
e 29 82
e 29 84
e 29 86
e 29 87
e 29 89
e 29 90
e 29 91
e 29 96
e 29 97
e 29 99
e 29 100
e 30 32
e 30 33
e 30 34
e 30 42
e 30 45
e 30 46
e 30 48
e 30 49
e 30 51
e 30 56
e 30 57
e 30 61
e 30 65
e 30 68
e 30 70
e 30 73
e 30 75
e 30 79
e 30 82
e 30 83
e 30 84
e 30 85
e 30 89
e 30 91
e 30 92
e 30 94
e 30 95
e 30 96
e 30 98
e 30 99
e 31 32
e 31 36
e 31 45
e 31 46
e 31 48
e 31 49
e 31 51
e 31 52
e 31 56
e 31 57
e 31 58
e 31 59
e 31 60
e 31 61
e 31 63
e 31 65
e 31 68
e 31 69
e 31 70
e 31 71
e 31 74
e 31 75
e 31 76
e 31 77
e 31 78
e 31 80
e 31 81
e 31 82
e 31 84
e 31 86
e 31 87
e 31 89
e 31 90
e 31 91
e 31 96
e 31 97
e 31 99
e 31 100
e 32 36
e 32 47
e 32 50
e 32 51
e 32 52
e 32 53
e 32 54
e 32 56
e 32 57
e 32 58
e 32 59
e 32 60
e 32 63
e 32 66
e 32 67
e 32 68
e 32 69
e 32 71
e 32 72
e 32 74
e 32 75
e 32 76
e 32 77
e 32 78
e 32 79
e 32 82
e 32 83
e 32 84
e 32 86
e 32 87
e 32 89
e 32 90
e 32 91
e 32 92
e 32 96
e 32 99
e 32 100
e 33 34
e 33 35
e 33 37
e 33 38
e 33 39
e 33 40
e 33 41
e 33 42
e 33 43
e 33 44
e 33 45
e 33 47
e 33 53
e 33 54
e 33 59
e 33 63
e 33 66
e 33 67
e 33 69
e 33 72
e 33 73
e 33 79
e 33 82
e 33 83
e 33 85
e 33 92
e 33 98
e 34 39
e 34 41
e 34 42
e 34 45
e 34 47
e 34 52
e 34 53
e 34 54
e 34 56
e 34 59
e 34 62
e 34 63
e 34 66
e 34 67
e 34 68
e 34 69
e 34 72
e 34 74
e 34 75
e 34 76
e 34 77
e 34 78
e 34 81
e 34 82
e 34 84
e 34 86
e 34 87
e 34 89
e 34 90
e 34 91
e 34 96
e 34 97
e 34 99
e 34 100
e 35 37
e 35 38
e 35 39
e 35 40
e 35 41
e 35 43
e 35 44
e 35 53
e 35 55
e 35 56
e 35 57
e 35 61
e 35 62
e 35 63
e 35 64
e 35 65
e 35 68
e 35 69
e 35 70
e 35 74
e 35 75
e 35 76
e 35 77
e 35 78
e 35 80
e 35 81
e 35 82
e 35 84
e 35 88
e 35 90
e 35 93
e 35 96
e 35 100
e 36 46
e 36 48
e 36 49
e 36 51
e 36 57
e 36 58
e 36 60
e 36 61
e 36 65
e 36 70
e 36 71
e 36 73
e 36 74
e 36 75
e 36 76
e 36 78
e 36 79
e 36 82
e 36 83
e 36 84
e 36 85
e 36 91
e 36 92
e 36 96
e 36 98
e 36 99
e 37 38
e 37 39
e 37 40
e 37 41
e 37 43
e 37 44
e 37 47
e 37 52
e 37 53
e 37 54
e 37 56
e 37 57
e 37 58
e 37 59
e 37 63
e 37 66
e 37 67
e 37 68
e 37 69
e 37 72
e 37 74
e 37 75
e 37 76
e 37 77
e 37 78
e 37 80
e 37 81
e 37 82
e 37 84
e 37 86
e 37 87
e 37 90
e 37 91
e 37 93
e 37 96
e 37 97
e 37 99
e 37 100
e 38 39
e 38 40
e 38 41
e 38 43
e 38 44
e 38 55
e 38 56
e 38 61
e 38 62
e 38 64
e 38 65
e 38 68
e 38 70
e 38 75
e 38 84
e 38 86
e 38 87
e 38 89
e 38 90
e 38 91
e 38 94
e 38 97
e 38 99
e 38 100
e 39 40
e 39 41
e 39 43
e 39 44
e 39 53
e 39 55
e 39 56
e 39 61
e 39 62
e 39 64
e 39 68
e 39 70
e 39 74
e 39 76
e 39 77
e 39 78
e 39 80
e 39 81
e 39 82
e 39 88
e 39 93
e 40 41
e 40 43
e 40 44
e 40 53
e 40 55
e 40 56
e 40 61
e 40 62
e 40 63
e 40 64
e 40 68
e 40 69
e 40 70
e 40 73
e 40 79
e 40 83
e 40 85
e 40 91
e 40 92
e 40 94
e 40 95
e 40 96
e 40 98
e 41 43
e 41 44
e 41 45
e 41 46
e 41 48
e 41 49
e 41 51
e 41 57
e 41 58
e 41 60
e 41 61
e 41 65
e 41 70
e 41 71
e 41 73
e 41 75
e 41 79
e 41 82
e 41 83
e 41 84
e 41 85
e 41 89
e 41 91
e 41 92
e 41 94
e 41 95
e 41 96
e 41 98
e 42 45
e 42 47
e 42 53
e 42 55
e 42 56
e 42 61
e 42 62
e 42 63
e 42 64
e 42 68
e 42 69
e 42 70
e 42 73
e 42 75
e 42 79
e 42 82
e 42 83
e 42 85
e 42 92
e 42 95
e 42 96
e 42 98
e 43 44
e 43 47
e 43 51
e 43 52
e 43 53
e 43 54
e 43 56
e 43 57
e 43 58
e 43 59
e 43 60
e 43 61
e 43 62
e 43 63
e 43 64
e 43 66
e 43 67
e 43 68
e 43 69
e 43 72
e 43 73
e 43 79
e 43 83
e 43 85
e 43 91
e 43 92
e 43 94
e 43 95
e 43 98
e 44 46
e 44 48
e 44 49
e 44 51
e 44 57
e 44 61
e 44 65
e 44 70
e 44 74
e 44 76
e 44 77
e 44 78
e 44 80
e 44 81
e 44 82
e 44 88
e 44 93
e 45 47
e 45 52
e 45 53
e 45 54
e 45 56
e 45 57
e 45 58
e 45 59
e 45 62
e 45 63
e 45 66
e 45 67
e 45 68
e 45 69
e 45 72
e 45 75
e 45 78
e 45 84
e 45 86
e 45 87
e 45 89
e 45 90
e 45 91
e 45 96
e 45 97
e 45 99
e 45 100
e 46 49
e 46 52
e 46 53
e 46 55
e 46 60
e 46 61
e 46 63
e 46 64
e 46 65
e 46 66
e 46 67
e 46 70
e 46 72
e 46 73
e 46 75
e 46 76
e 46 77
e 46 79
e 46 81
e 46 82
e 46 84
e 46 85
e 46 86
e 46 89
e 46 92
e 46 94
e 46 99
e 46 100
e 47 48
e 47 50
e 47 56
e 47 57
e 47 58
e 47 62
e 47 68
e 47 69
e 47 74
e 47 81
e 47 84
e 47 88
e 47 90
e 47 92
e 47 95
e 47 96
e 48 50
e 48 56
e 48 57
e 48 58
e 48 62
e 48 68
e 48 69
e 48 74
e 48 88
e 48 90
e 48 96
e 49 52
e 49 53
e 49 55
e 49 60
e 49 61
e 49 63
e 49 66
e 49 67
e 49 70
e 49 73
e 49 79
e 49 81
e 49 84
e 49 85
e 49 86
e 49 92
e 49 99
e 49 100
e 50 56
e 50 57
e 50 58
e 50 62
e 50 68
e 50 69
e 50 74
e 50 88
e 50 90
e 50 96
e 51 53
e 51 54
e 51 55
e 51 59
e 51 61
e 51 63
e 51 64
e 51 65
e 51 66
e 51 71
e 51 72
e 51 75
e 51 76
e 51 77
e 51 80
e 51 82
e 51 83
e 51 86
e 51 89
e 51 91
e 51 93
e 51 94
e 51 98
e 51 100
e 52 53
e 52 55
e 52 59
e 52 60
e 52 61
e 52 63
e 52 64
e 52 65
e 52 66
e 52 67
e 52 70
e 52 72
e 52 73
e 52 75
e 52 76
e 52 77
e 52 79
e 52 81
e 52 82
e 52 84
e 52 85
e 52 86
e 52 89
e 52 92
e 52 94
e 52 99
e 52 100
e 53 55
e 53 59
e 53 60
e 53 61
e 53 63
e 53 64
e 53 65
e 53 66
e 53 67
e 53 70
e 53 71
e 53 72
e 53 75
e 53 76
e 53 77
e 53 79
e 53 81
e 53 82
e 53 84
e 53 85
e 53 86
e 53 89
e 53 92
e 53 93
e 53 94
e 53 98
e 53 99
e 53 100
e 54 56
e 54 57
e 54 58
e 54 59
e 54 62
e 54 63
e 54 66
e 54 69
e 54 71
e 54 72
e 54 75
e 54 78
e 54 80
e 54 81
e 54 82
e 54 83
e 54 87
e 54 89
e 54 91
e 54 93
e 54 94
e 54 95
e 54 96
e 54 97
e 55 59
e 55 60
e 55 61
e 55 63
e 55 64
e 55 65
e 55 66
e 55 67
e 55 70
e 55 72
e 55 75
e 55 76
e 55 77
e 55 79
e 55 82
e 55 84
e 55 85
e 55 86
e 55 89
e 55 92
e 55 94
e 55 98
e 55 99
e 55 100
e 56 57
e 56 58
e 56 62
e 56 63
e 56 68
e 56 69
e 56 74
e 56 78
e 56 81
e 56 83
e 56 84
e 56 88
e 56 89
e 56 90
e 56 91
e 56 92
e 56 93
e 56 95
e 56 96
e 57 58
e 57 62
e 57 68
e 57 69
e 57 74
e 57 78
e 57 81
e 57 83
e 57 84
e 57 88
e 57 89
e 57 90
e 57 91
e 57 92
e 57 93
e 57 95
e 57 96
e 57 97
e 58 62
e 58 68
e 58 69
e 58 74
e 58 78
e 58 81
e 58 83
e 58 88
e 58 90
e 58 91
e 58 92
e 58 93
e 58 95
e 58 96
e 58 97
e 59 61
e 59 62
e 59 63
e 59 64
e 59 65
e 59 66
e 59 70
e 59 71
e 59 72
e 59 75
e 59 76
e 59 77
e 59 78
e 59 80
e 59 81
e 59 82
e 59 83
e 59 84
e 59 86
e 59 87
e 59 89
e 59 91
e 59 92
e 59 93
e 59 94
e 59 95
e 59 96
e 59 97
e 59 100
e 60 61
e 60 63
e 60 66
e 60 67
e 60 70
e 60 73
e 60 79
e 60 81
e 60 84
e 60 85
e 60 86
e 60 92
e 60 99
e 60 100
e 61 62
e 61 63
e 61 64
e 61 65
e 61 66
e 61 67
e 61 70
e 61 71
e 61 72
e 61 73
e 61 75
e 61 76
e 61 77
e 61 79
e 61 81
e 61 82
e 61 83
e 61 84
e 61 85
e 61 86
e 61 89
e 61 92
e 61 93
e 61 94
e 61 95
e 61 98
e 61 99
e 61 100
e 62 63
e 62 66
e 62 68
e 62 69
e 62 74
e 62 78
e 62 79
e 62 80
e 62 81
e 62 82
e 62 83
e 62 84
e 62 88
e 62 89
e 62 90
e 62 91
e 62 92
e 62 93
e 62 95
e 62 96
e 62 97
e 63 64
e 63 65
e 63 66
e 63 67
e 63 70
e 63 72
e 63 73
e 63 75
e 63 76
e 63 77
e 63 79
e 63 81
e 63 82
e 63 83
e 63 84
e 63 85
e 63 86
e 63 89
e 63 92
e 63 93
e 63 94
e 63 95
e 63 96
e 63 99
e 63 100
e 64 65
e 64 66
e 64 67
e 64 70
e 64 71
e 64 72
e 64 75
e 64 76
e 64 77
e 64 82
e 64 85
e 64 86
e 64 89
e 64 94
e 64 98
e 64 100
e 65 66
e 65 67
e 65 70
e 65 71
e 65 72
e 65 75
e 65 76
e 65 77
e 65 82
e 65 85
e 65 86
e 65 89
e 65 94
e 65 98
e 65 100
e 66 67
e 66 70
e 66 71
e 66 72
e 66 75
e 66 76
e 66 77
e 66 79
e 66 81
e 66 82
e 66 83
e 66 84
e 66 85
e 66 86
e 66 89
e 66 92
e 66 93
e 66 94
e 66 95
e 66 98
e 66 99
e 66 100
e 67 70
e 67 73
e 67 76
e 67 77
e 67 79
e 67 82
e 67 84
e 67 85
e 67 86
e 67 92
e 67 94
e 67 99
e 67 100
e 68 69
e 68 74
e 68 78
e 68 81
e 68 84
e 68 88
e 68 90
e 68 91
e 68 92
e 68 93
e 68 95
e 68 96
e 68 97
e 69 74
e 69 78
e 69 80
e 69 81
e 69 83
e 69 88
e 69 89
e 69 90
e 69 91
e 69 92
e 69 93
e 69 95
e 69 96
e 69 97
e 70 72
e 70 73
e 70 75
e 70 76
e 70 77
e 70 79
e 70 81
e 70 82
e 70 84
e 70 85
e 70 86
e 70 89
e 70 92
e 70 94
e 70 99
e 70 100
e 71 72
e 71 75
e 71 76
e 71 77
e 71 80
e 71 82
e 71 83
e 71 87
e 71 89
e 71 91
e 71 93
e 71 94
e 71 98
e 71 100
e 72 75
e 72 76
e 72 77
e 72 80
e 72 82
e 72 83
e 72 84
e 72 86
e 72 89
e 72 91
e 72 93
e 72 94
e 72 95
e 72 98
e 72 100
e 73 79
e 73 81
e 73 84
e 73 85
e 73 92
e 73 99
e 74 78
e 74 81
e 74 84
e 74 88
e 74 90
e 74 91
e 74 92
e 74 93
e 74 95
e 74 96
e 75 76
e 75 77
e 75 80
e 75 82
e 75 83
e 75 86
e 75 89
e 75 91
e 75 93
e 75 94
e 75 98
e 75 100
e 76 77
e 76 82
e 76 85
e 76 86
e 76 89
e 76 94
e 76 98
e 76 100
e 77 82
e 77 85
e 77 86
e 77 94
e 77 98
e 77 100
e 78 80
e 78 81
e 78 82
e 78 83
e 78 87
e 78 88
e 78 89
e 78 90
e 78 91
e 78 92
e 78 93
e 78 95
e 78 96
e 78 97
e 79 81
e 79 82
e 79 84
e 79 85
e 79 86
e 79 89
e 79 92
e 79 94
e 79 99
e 79 100
e 80 82
e 80 83
e 80 87
e 80 89
e 80 91
e 80 93
e 80 95
e 80 96
e 80 97
e 81 82
e 81 83
e 81 84
e 81 85
e 81 88
e 81 89
e 81 90
e 81 91
e 81 92
e 81 93
e 81 95
e 81 96
e 81 99
e 81 100
e 82 83
e 82 84
e 82 85
e 82 86
e 82 89
e 82 91
e 82 92
e 82 93
e 82 94
e 82 95
e 82 96
e 82 98
e 82 100
e 83 87
e 83 89
e 83 91
e 83 93
e 83 94
e 83 95
e 83 96
e 83 97
e 84 85
e 84 86
e 84 88
e 84 89
e 84 92
e 84 93
e 84 94
e 84 95
e 84 96
e 84 99
e 84 100
e 85 86
e 85 89
e 85 92
e 85 94
e 85 99
e 85 100
e 86 89
e 86 92
e 86 94
e 86 98
e 86 99
e 86 100
e 87 91
e 87 93
e 87 97
e 88 90
e 88 91
e 88 92
e 88 93
e 88 95
e 88 96
e 89 91
e 89 92
e 89 93
e 89 94
e 89 95
e 89 96
e 89 97
e 89 100
e 90 92
e 90 95
e 90 96
e 91 93
e 91 95
e 91 96
e 91 97
e 92 93
e 92 94
e 92 95
e 92 96
e 92 99
e 92 100
e 93 94
e 93 95
e 93 96
e 93 97
e 93 100
e 94 98
e 94 100
e 95 96
e 95 97
e 96 97
e 98 100
e 99 100
